clingo version 5.6.2
Reading from ...etition/0032-graph_colouring-140-0.asp ...
Solving...
UNSATISFIABLE

Models       : 0
Calls        : 1
Time         : 3.829s (Solving: 3.59s 1st Model: 0.00s Unsat: 3.59s)
CPU Time     : 3.827s

Choices      : 161987  
Conflicts    : 149512   (Analyzed: 149511)
Restarts     : 509      (Average: 293.73 Last: 4097)
Problems     : 1        (Average Length: 0.00 Splits: 0)
Lemmas       : 149511   (Deleted: 134808)
  Binary     : 197      (Ratio:   0.13%)
  Ternary    : 1049     (Ratio:   0.70%)
  Conflict   : 149511   (Average Length:   22.0 Ratio: 100.00%) 
  Loop       : 0        (Average Length:    0.0 Ratio:   0.00%) 
  Other      : 0        (Average Length:    0.0 Ratio:   0.00%) 
Backjumps    : 149511   (Average:  1.07 Max:   7 Sum: 160004)
  Executed   : 149511   (Average:  1.07 Max:   7 Sum: 160004 Ratio: 100.00%)
  Bounded    : 0        (Average:  0.00 Max:   0 Sum:      0 Ratio:   0.00%)

Rules        : 20768   
Atoms        : 3778    
Bodies       : 1380    
Equivalences : 2720     (Atom=Atom: 19 Body=Body: 674 Other: 2027)
Tight        : Yes
Variables    : 822      (Eliminated:    0 Frozen:    0)
Constraints  : 8248     (Binary:  90.2% Ternary:   0.0% Other:   9.8%)

